p cnf 188 812
52 92 101 114 0
90 93 95 106 0
60 62 87 98 0
80 115 123 0
82 107 124 0
72 111 131 138 0
105 128 0
102 117 130 0
77 83 132 0
76 122 0
67 74 100 112 0
64 91 162 0
63 96 0
57 59 61 0
71 109 140 0
55 99 0
84 104 0
56 66 0
50 69 0
46 49 0
47 126 0
110 133 134 135 0
139 142 143 0
85 145 147 148 0
149 150 151 0
118 152 153 173 0
154 156 181 0
78 157 158 159 0
53 70 75 160 0
88 94 161 163 0
58 81 164 0
116 165 167 0
45 127 169 0
73 108 136 141 0
129 170 172 0
120 176 177 0
178 187 0
79 179 0
-52 -180 0
-87 -180 0
-80 -180 0
-48 -180 0
-124 -180 0
-52 -87 0
-52 -80 0
-48 -52 0
-52 -124 0
-80 -87 0
-48 -87 0
-87 -124 0
-48 -80 0
-80 -124 0
-48 -124 0
-137 -144 0
-137 -174 0
-117 -137 0
-137 -182 0
-83 -137 0
-144 -174 0
-117 -144 0
-144 -182 0
-83 -144 0
-117 -174 0
-174 -182 0
-83 -174 0
-117 -182 0
-83 -117 0
-83 -182 0
-91 -112 0
-61 -112 0
-112 -183 0
-112 -184 0
-112 -185 0
-61 -91 0
-91 -183 0
-91 -184 0
-91 -185 0
-61 -183 0
-61 -184 0
-61 -185 0
-183 -184 0
-183 -185 0
-184 -185 0
-99 -104 0
-99 -175 0
-99 -186 0
-99 -188 0
-44 -99 0
-104 -175 0
-104 -186 0
-104 -188 0
-44 -104 0
-175 -186 0
-175 -188 0
-44 -175 0
-186 -188 0
-44 -186 0
-44 -188 0
-85 -139 0
-139 -152 0
-43 -139 0
-139 -154 0
-139 -157 0
-85 -152 0
-43 -85 0
-85 -154 0
-85 -157 0
-43 -152 0
-152 -154 0
-152 -157 0
-43 -154 0
-43 -157 0
-154 -157 0
-75 -88 0
-75 -164 0
-75 -165 0
-45 -75 0
-42 -75 0
-88 -164 0
-88 -165 0
-45 -88 0
-42 -88 0
-164 -165 0
-45 -164 0
-42 -164 0
-45 -165 0
-42 -165 0
-42 -45 0
-137 -180 0
-112 -180 0
-99 -180 0
-139 -180 0
-75 -180 0
-112 -137 0
-99 -137 0
-137 -139 0
-75 -137 0
-99 -112 0
-112 -139 0
-75 -112 0
-99 -139 0
-75 -99 0
-75 -139 0
-52 -144 0
-52 -91 0
-52 -104 0
-52 -85 0
-52 -88 0
-91 -144 0
-104 -144 0
-85 -144 0
-88 -144 0
-91 -104 0
-85 -91 0
-88 -91 0
-85 -104 0
-88 -104 0
-85 -88 0
-87 -174 0
-61 -87 0
-87 -175 0
-87 -152 0
-87 -164 0
-61 -174 0
-174 -175 0
-152 -174 0
-164 -174 0
-61 -175 0
-61 -152 0
-61 -164 0
-152 -175 0
-164 -175 0
-152 -164 0
-80 -117 0
-80 -183 0
-80 -186 0
-43 -80 0
-80 -165 0
-117 -183 0
-117 -186 0
-43 -117 0
-117 -165 0
-183 -186 0
-43 -183 0
-165 -183 0
-43 -186 0
-165 -186 0
-43 -165 0
-48 -182 0
-48 -184 0
-48 -188 0
-48 -154 0
-45 -48 0
-182 -184 0
-182 -188 0
-154 -182 0
-45 -182 0
-184 -188 0
-154 -184 0
-45 -184 0
-154 -188 0
-45 -188 0
-45 -154 0
-83 -124 0
-124 -185 0
-44 -124 0
-124 -157 0
-42 -124 0
-83 -185 0
-44 -83 0
-83 -157 0
-42 -83 0
-44 -185 0
-157 -185 0
-42 -185 0
-44 -157 0
-42 -44 0
-42 -157 0
-92 -95 0
-62 -92 0
-41 -92 0
-92 -131 0
-62 -95 0
-41 -95 0
-95 -131 0
-41 -62 0
-62 -131 0
-41 -131 0
-40 -84 0
-39 -84 0
-38 -84 0
-56 -84 0
-39 -40 0
-38 -40 0
-40 -56 0
-38 -39 0
-39 -56 0
-38 -56 0
-37 -51 0
-51 -86 0
-47 -51 0
-51 -133 0
-37 -86 0
-37 -47 0
-37 -133 0
-47 -86 0
-86 -133 0
-47 -133 0
-145 -149 0
-145 -173 0
-145 -181 0
-36 -145 0
-149 -173 0
-149 -181 0
-36 -149 0
-173 -181 0
-36 -173 0
-36 -181 0
-103 -129 0
-103 -176 0
-103 -187 0
-35 -103 0
-129 -176 0
-129 -187 0
-35 -129 0
-176 -187 0
-35 -176 0
-35 -187 0
-84 -92 0
-51 -92 0
-92 -145 0
-92 -103 0
-51 -84 0
-84 -145 0
-84 -103 0
-51 -145 0
-51 -103 0
-103 -145 0
-40 -95 0
-37 -95 0
-95 -149 0
-95 -129 0
-37 -40 0
-40 -149 0
-40 -129 0
-37 -149 0
-37 -129 0
-129 -149 0
-39 -62 0
-62 -86 0
-62 -173 0
-62 -176 0
-39 -86 0
-39 -173 0
-39 -176 0
-86 -173 0
-86 -176 0
-173 -176 0
-38 -41 0
-41 -47 0
-41 -181 0
-41 -187 0
-38 -47 0
-38 -181 0
-38 -187 0
-47 -181 0
-47 -187 0
-181 -187 0
-56 -131 0
-131 -133 0
-36 -131 0
-35 -131 0
-56 -133 0
-36 -56 0
-35 -56 0
-36 -133 0
-35 -133 0
-35 -36 0
-34 -114 0
-34 -93 0
-34 -125 0
-93 -114 0
-114 -125 0
-93 -125 0
-33 -146 0
-33 -105 0
-33 -155 0
-105 -146 0
-146 -155 0
-105 -155 0
-74 -162 0
-74 -96 0
-74 -168 0
-96 -162 0
-162 -168 0
-96 -168 0
-160 -161 0
-32 -160 0
-127 -160 0
-32 -161 0
-127 -161 0
-32 -127 0
-33 -34 0
-34 -74 0
-34 -160 0
-33 -74 0
-33 -160 0
-74 -160 0
-114 -146 0
-114 -162 0
-114 -161 0
-146 -162 0
-146 -161 0
-161 -162 0
-93 -105 0
-93 -96 0
-32 -93 0
-96 -105 0
-32 -105 0
-32 -96 0
-125 -155 0
-125 -168 0
-125 -127 0
-155 -168 0
-127 -155 0
-127 -168 0
-64 -166 0
-31 -64 0
-30 -64 0
-64 -109 0
-31 -166 0
-30 -166 0
-109 -166 0
-30 -31 0
-31 -109 0
-30 -109 0
-49 -113 0
-113 -126 0
-28 -113 0
-113 -134 0
-49 -126 0
-28 -49 0
-49 -134 0
-28 -126 0
-126 -134 0
-28 -134 0
-27 -147 0
-147 -156 0
-147 -158 0
-26 -147 0
-27 -156 0
-27 -158 0
-26 -27 0
-156 -158 0
-26 -156 0
-26 -158 0
-116 -163 0
-163 -169 0
-25 -163 0
-73 -163 0
-116 -169 0
-25 -116 0
-73 -116 0
-25 -169 0
-73 -169 0
-25 -73 0
-23 -24 0
-24 -178 0
-24 -79 0
-22 -24 0
-23 -178 0
-23 -79 0
-22 -23 0
-79 -178 0
-22 -178 0
-22 -79 0
-64 -113 0
-64 -147 0
-64 -163 0
-24 -64 0
-113 -147 0
-113 -163 0
-24 -113 0
-147 -163 0
-24 -147 0
-24 -163 0
-49 -166 0
-27 -166 0
-116 -166 0
-23 -166 0
-27 -49 0
-49 -116 0
-23 -49 0
-27 -116 0
-23 -27 0
-23 -116 0
-31 -126 0
-31 -156 0
-31 -169 0
-31 -178 0
-126 -156 0
-126 -169 0
-126 -178 0
-156 -169 0
-156 -178 0
-169 -178 0
-28 -30 0
-30 -158 0
-25 -30 0
-30 -79 0
-28 -158 0
-25 -28 0
-28 -79 0
-25 -158 0
-79 -158 0
-25 -79 0
-109 -134 0
-26 -109 0
-73 -109 0
-22 -109 0
-26 -134 0
-73 -134 0
-22 -134 0
-26 -73 0
-22 -26 0
-22 -73 0
-68 -90 0
-68 -98 0
-68 -123 0
-68 -107 0
-68 -111 0
-90 -98 0
-90 -123 0
-90 -107 0
-90 -111 0
-98 -123 0
-98 -107 0
-98 -111 0
-107 -123 0
-111 -123 0
-107 -111 0
-21 -128 0
-20 -21 0
-21 -130 0
-21 -132 0
-21 -76 0
-20 -128 0
-128 -130 0
-128 -132 0
-76 -128 0
-20 -130 0
-20 -132 0
-20 -76 0
-130 -132 0
-76 -130 0
-76 -132 0
-55 -171 0
-55 -119 0
-19 -55 0
-18 -55 0
-55 -66 0
-119 -171 0
-19 -171 0
-18 -171 0
-66 -171 0
-19 -119 0
-18 -119 0
-66 -119 0
-18 -19 0
-19 -66 0
-18 -66 0
-142 -150 0
-142 -153 0
-17 -142 0
-78 -142 0
-16 -142 0
-150 -153 0
-17 -150 0
-78 -150 0
-16 -150 0
-17 -153 0
-78 -153 0
-16 -153 0
-17 -78 0
-16 -17 0
-16 -78 0
-15 -70 0
-58 -70 0
-70 -167 0
-29 -70 0
-70 -108 0
-15 -58 0
-15 -167 0
-15 -29 0
-15 -108 0
-58 -167 0
-29 -58 0
-58 -108 0
-29 -167 0
-108 -167 0
-29 -108 0
-14 -170 0
-14 -177 0
-13 -14 0
-14 -179 0
-12 -14 0
-170 -177 0
-13 -170 0
-170 -179 0
-12 -170 0
-13 -177 0
-177 -179 0
-12 -177 0
-13 -179 0
-12 -13 0
-12 -179 0
-21 -68 0
-55 -68 0
-68 -142 0
-68 -70 0
-14 -68 0
-21 -55 0
-21 -142 0
-21 -70 0
-14 -21 0
-55 -142 0
-55 -70 0
-14 -55 0
-70 -142 0
-14 -142 0
-14 -70 0
-90 -128 0
-90 -171 0
-90 -150 0
-15 -90 0
-90 -170 0
-128 -171 0
-128 -150 0
-15 -128 0
-128 -170 0
-150 -171 0
-15 -171 0
-170 -171 0
-15 -150 0
-150 -170 0
-15 -170 0
-20 -98 0
-98 -119 0
-98 -153 0
-58 -98 0
-98 -177 0
-20 -119 0
-20 -153 0
-20 -58 0
-20 -177 0
-119 -153 0
-58 -119 0
-119 -177 0
-58 -153 0
-153 -177 0
-58 -177 0
-123 -130 0
-19 -123 0
-17 -123 0
-123 -167 0
-13 -123 0
-19 -130 0
-17 -130 0
-130 -167 0
-13 -130 0
-17 -19 0
-19 -167 0
-13 -19 0
-17 -167 0
-13 -17 0
-13 -167 0
-107 -132 0
-18 -107 0
-78 -107 0
-29 -107 0
-107 -179 0
-18 -132 0
-78 -132 0
-29 -132 0
-132 -179 0
-18 -78 0
-18 -29 0
-18 -179 0
-29 -78 0
-78 -179 0
-29 -179 0
-76 -111 0
-66 -111 0
-16 -111 0
-108 -111 0
-12 -111 0
-66 -76 0
-16 -76 0
-76 -108 0
-12 -76 0
-16 -66 0
-66 -108 0
-12 -66 0
-16 -108 0
-12 -16 0
-12 -108 0
-63 -100 0
-59 -100 0
-71 -100 0
-59 -63 0
-63 -71 0
-59 -71 0
-69 -89 0
-69 -97 0
-69 -110 0
-89 -97 0
-89 -110 0
-97 -110 0
-11 -53 0
-53 -81 0
-53 -136 0
-11 -81 0
-11 -136 0
-81 -136 0
-54 -172 0
-54 -120 0
-54 -65 0
-120 -172 0
-65 -172 0
-65 -120 0
-69 -100 0
-53 -100 0
-54 -100 0
-53 -69 0
-54 -69 0
-53 -54 0
-63 -89 0
-11 -63 0
-63 -172 0
-11 -89 0
-89 -172 0
-11 -172 0
-59 -97 0
-59 -81 0
-59 -120 0
-81 -97 0
-97 -120 0
-81 -120 0
-71 -110 0
-71 -136 0
-65 -71 0
-110 -136 0
-65 -110 0
-65 -136 0
-10 -60 0
-10 -115 0
-10 -82 0
-10 -72 0
-60 -115 0
-60 -82 0
-60 -72 0
-82 -115 0
-72 -115 0
-72 -82 0
-8 -9 0
-9 -102 0
-9 -77 0
-9 -122 0
-8 -102 0
-8 -77 0
-8 -122 0
-77 -102 0
-102 -122 0
-77 -122 0
-57 -67 0
-7 -67 0
-6 -67 0
-67 -140 0
-7 -57 0
-6 -57 0
-57 -140 0
-6 -7 0
-7 -140 0
-6 -140 0
-5 -50 0
-46 -50 0
-4 -50 0
-50 -135 0
-5 -46 0
-4 -5 0
-5 -135 0
-4 -46 0
-46 -135 0
-4 -135 0
-118 -143 0
-3 -143 0
-143 -159 0
-2 -143 0
-3 -118 0
-118 -159 0
-2 -118 0
-3 -159 0
-2 -3 0
-2 -159 0
-9 -10 0
-10 -67 0
-10 -50 0
-10 -143 0
-9 -67 0
-9 -50 0
-9 -143 0
-50 -67 0
-67 -143 0
-50 -143 0
-8 -60 0
-57 -60 0
-5 -60 0
-60 -118 0
-8 -57 0
-5 -8 0
-8 -118 0
-5 -57 0
-57 -118 0
-5 -118 0
-102 -115 0
-7 -115 0
-46 -115 0
-3 -115 0
-7 -102 0
-46 -102 0
-3 -102 0
-7 -46 0
-3 -7 0
-3 -46 0
-77 -82 0
-6 -82 0
-4 -82 0
-82 -159 0
-6 -77 0
-4 -77 0
-77 -159 0
-4 -6 0
-6 -159 0
-4 -159 0
-72 -122 0
-72 -140 0
-72 -135 0
-2 -72 0
-122 -140 0
-122 -135 0
-2 -122 0
-135 -140 0
-2 -140 0
-2 -135 0
-101 -106 0
-101 -138 0
-106 -138 0
-148 -151 0
-121 -148 0
-121 -151 0
-1 -94 0
-94 -141 0
-1 -141 0
-101 -148 0
-94 -101 0
-94 -148 0
-106 -151 0
-1 -106 0
-1 -151 0
-121 -138 0
-138 -141 0
-121 -141 0
